param n := 38;
param c := 100;
param w := 
1 100
2 95
3 94
4 93
5 91
6 89
7 88
8 86
9 82
10 80
11 71
12 69
13 67
14 65
15 64
16 63
17 61
18 58
19 52
20 48
21 47
22 46
23 43
24 41
25 39
26 38
27 35
28 32
29 25
30 24
31 21
32 14
33 13
34 13
35 11
36 10
37 6
38 2
;